(set-info :source |printed by MathSAT|)

0 (4) @37:
(assert true)

4 (11) @51:
(assert true)

11 (15,14,13,12) @51:
(assert true)

15 () @406:
(assert true)

14 () @407:
(assert true)

13 () @51:
(assert true)

12 () @408:
(assert true)

